95
raw_data/mm-rcpsp/MMLIB50/J5019_5.mm
Time limit set to 60 seconds
Running CP solver
/home/omastto1/General-Optimization-Solver/src/solvers/mmrcpsp.py:42(stream:278:6): Warning: Cumulative expression 'pulse': height is zero, expression is zero everywhere.
                                                                                               VarCumulAtom_421 = pulse(task_0_mode_0, 0)
/home/omastto1/General-Optimization-Solver/src/solvers/mmrcpsp.py:42(stream:278:3911): Warning: Cumulative expression 'pulse': height is zero, expression is zero everywhere.
                                                                                                  VarCumulAtom_572 = pulse(task_51_mode_0, 0)
/home/omastto1/General-Optimization-Solver/src/solvers/mmrcpsp.py:42(stream:279:6): Warning: Cumulative expression 'pulse': height is zero, expression is zero everywhere.
                                                                                               VarCumulAtom_576 = pulse(task_0_mode_0, 0)
/home/omastto1/General-Optimization-Solver/src/solvers/mmrcpsp.py:42(stream:279:3911): Warning: Cumulative expression 'pulse': height is zero, expression is zero everywhere.
                                                                                                  VarCumulAtom_727 = pulse(task_51_mode_0, 0)
 ! --------------------------------------------------- CP Optimizer 20.1.0.0 --
 ! Minimization problem - 205 variables, 270 constraints
 ! TimeLimit            = 60
 ! Workers              = 14
 ! LogVerbosity         = Terse
 ! Initial process time : 0.01s (0.01s extraction + 0.00s propagation)
 !  . Log search space  : 525.6 (before), 525.6 (after)
 !  . Memory usage      : 1.3 MB (before), 1.3 MB (after)
 ! Using parallel search with 14 workers.
 ! ----------------------------------------------------------------------------
 !          Best Branches  Non-fixed    W       Branch decision
                        0        205                 -
 + New bound is 28
 ! Using iterative diving.
 ! Using temporal relaxation.
 *            42      810  0.84s        1      (gap is 33.33%)
 *            41      825  0.84s        3      (gap is 31.71%)
 *            39      614  0.84s        5      (gap is 28.21%)
 *            38      793  0.84s        5      (gap is 26.32%)
 *            35     1970  1.45s        1      (gap is 20.00%)
 *            33     2045  1.45s        4      (gap is 15.15%)
 *            32     3775  2.04s        7      (gap is 12.50%)
 *            31     3795  2.04s        9      (gap is 9.68%)
 *            30     4604  2.04s       11      (gap is 6.67%)
 *            29     9909  3.80s        8      (gap is 3.45%)
 ! Using failure-directed search.
 ! ----------------------------------------------------------------------------
 ! Search terminated by limit, 10 solutions found.
 ! Best objective         : 29 (gap is 3.45%)
 ! Best bound             : 28
 ! ----------------------------------------------------------------------------
 ! Number of branches     : 5201502
 ! Number of fails        : 786643
 ! Total memory usage     : 19.3 MB (19.1 MB CP Optimizer + 0.2 MB Concert)
 ! Time spent in solve    : 60.04s (60.03s engine + 0.01s extraction)
 ! Search speed (br. / s) : 86662.8
 ! ----------------------------------------------------------------------------
task_0: (start=0, end=0, size=0, length=0)
Task 0 is scheduled in mode 0 from 0 to 0
task_1: (start=0, end=6, size=6, length=6)
Task 1 is scheduled in mode 2 from 0 to 6
task_2: (start=0, end=5, size=5, length=5)
Task 2 is scheduled in mode 1 from 0 to 5
task_3: (start=0, end=10, size=10, length=10)
Task 3 is scheduled in mode 2 from 0 to 10
task_4: (start=0, end=10, size=10, length=10)
Task 4 is scheduled in mode 2 from 0 to 10
task_5: (start=8, end=14, size=6, length=6)
Task 5 is scheduled in mode 2 from 8 to 14
task_6: (start=0, end=8, size=8, length=8)
Task 6 is scheduled in mode 2 from 0 to 8
task_7: (start=0, end=10, size=10, length=10)
Task 7 is scheduled in mode 2 from 0 to 10
task_8: (start=0, end=4, size=4, length=4)
Task 8 is scheduled in mode 1 from 0 to 4
task_9: (start=10, end=13, size=3, length=3)
Task 9 is scheduled in mode 1 from 10 to 13
task_10: (start=0, end=10, size=10, length=10)
Task 10 is scheduled in mode 2 from 0 to 10
task_11: (start=0, end=9, size=9, length=9)
Task 11 is scheduled in mode 2 from 0 to 9
task_12: (start=6, end=13, size=7, length=7)
Task 12 is scheduled in mode 2 from 6 to 13
task_13: (start=0, end=1, size=1, length=1)
Task 13 is scheduled in mode 0 from 0 to 1
task_14: (start=1, end=10, size=9, length=9)
Task 14 is scheduled in mode 2 from 1 to 10
task_15: (start=13, end=20, size=7, length=7)
Task 15 is scheduled in mode 1 from 13 to 20
task_16: (start=10, end=17, size=7, length=7)
Task 16 is scheduled in mode 1 from 10 to 17
task_17: (start=9, end=13, size=4, length=4)
Task 17 is scheduled in mode 2 from 9 to 13
task_18: (start=4, end=10, size=6, length=6)
Task 18 is scheduled in mode 2 from 4 to 10
task_19: (start=10, end=20, size=10, length=10)
Task 19 is scheduled in mode 2 from 10 to 20
task_20: (start=10, end=20, size=10, length=10)
Task 20 is scheduled in mode 1 from 10 to 20
task_21: (start=10, end=19, size=9, length=9)
Task 21 is scheduled in mode 2 from 10 to 19
task_22: (start=17, end=21, size=4, length=4)
Task 22 is scheduled in mode 1 from 17 to 21
task_23: (start=10, end=18, size=8, length=8)
Task 23 is scheduled in mode 2 from 10 to 18
task_24: (start=10, end=15, size=5, length=5)
Task 24 is scheduled in mode 1 from 10 to 15
task_25: (start=13, end=19, size=6, length=6)
Task 25 is scheduled in mode 2 from 13 to 19
task_26: (start=6, end=10, size=4, length=4)
Task 26 is scheduled in mode 2 from 6 to 10
task_27: (start=10, end=19, size=9, length=9)
Task 27 is scheduled in mode 2 from 10 to 19
task_28: (start=15, end=21, size=6, length=6)
Task 28 is scheduled in mode 1 from 15 to 21
task_29: (start=10, end=20, size=10, length=10)
Task 29 is scheduled in mode 2 from 10 to 20
task_30: (start=14, end=23, size=9, length=9)
Task 30 is scheduled in mode 2 from 14 to 23
task_31: (start=20, end=21, size=1, length=1)
Task 31 is scheduled in mode 0 from 20 to 21
task_32: (start=10, end=20, size=10, length=10)
Task 32 is scheduled in mode 2 from 10 to 20
task_33: (start=13, end=23, size=10, length=10)
Task 33 is scheduled in mode 2 from 13 to 23
task_34: (start=23, end=29, size=6, length=6)
Task 34 is scheduled in mode 2 from 23 to 29
task_35: (start=24, end=29, size=5, length=5)
Task 35 is scheduled in mode 2 from 24 to 29
task_36: (start=24, end=29, size=5, length=5)
Task 36 is scheduled in mode 1 from 24 to 29
task_37: (start=21, end=29, size=8, length=8)
Task 37 is scheduled in mode 2 from 21 to 29
task_38: (start=21, end=29, size=8, length=8)
Task 38 is scheduled in mode 2 from 21 to 29
task_39: (start=21, end=29, size=8, length=8)
Task 39 is scheduled in mode 2 from 21 to 29
task_40: (start=22, end=29, size=7, length=7)
Task 40 is scheduled in mode 1 from 22 to 29
task_41: (start=20, end=29, size=9, length=9)
Task 41 is scheduled in mode 2 from 20 to 29
task_42: (start=21, end=27, size=6, length=6)
Task 42 is scheduled in mode 2 from 21 to 27
task_43: (start=20, end=22, size=2, length=2)
Task 43 is scheduled in mode 1 from 20 to 22
task_44: (start=19, end=29, size=10, length=10)
Task 44 is scheduled in mode 2 from 19 to 29
task_45: (start=15, end=24, size=9, length=9)
Task 45 is scheduled in mode 2 from 15 to 24
task_46: (start=20, end=29, size=9, length=9)
Task 46 is scheduled in mode 2 from 20 to 29
task_47: (start=21, end=29, size=8, length=8)
Task 47 is scheduled in mode 1 from 21 to 29
task_48: (start=19, end=20, size=1, length=1)
Task 48 is scheduled in mode 0 from 19 to 20
task_49: (start=14, end=21, size=7, length=7)
Task 49 is scheduled in mode 2 from 14 to 21
task_50: (start=20, end=24, size=4, length=4)
Task 50 is scheduled in mode 1 from 20 to 24
task_51: (start=29, end=29, size=0, length=0)
Task 51 is scheduled in mode 0 from 29 to 29
Feasible solution found
Objective value: 29
Solution is 3.6 % worse than the optimum.
